Running HiGHS 1.15.1 (git hash: 04024d7): Copyright (c) 2026 under MIT licence terms
Includes third-party software components, see THIRD_PARTY_NOTICES.md for full details
MIP has 256 rows; 734 cols; 4574 nonzeros; 734 integer variables (734 binary)
Coefficient ranges:
  Matrix  [1e+00, 1e+00]
  Cost    [0e+00, 0e+00]
  Bound   [1e+00, 1e+00]
  RHS     [1e+00, 1e+00]
Presolving model
256 rows, 734 cols, 4574 nonzeros 0s
256 rows, 734 cols, 4574 nonzeros 0s
Presolve reductions: rows 256(-0); columns 734(-0); nonzeros 4574(-0) - Not reduced
Objective function is integral with scale 1

Solving MIP model with:
   256 rows
   734 cols (734 binary, 0 integer, 0 implied int., 0 continuous, 0 domain fixed)
   4574 nonzeros
   Thread count 4 (of 8 threads). Using 1 max workers. Parallel search off

Src: B => Branching; C => Central rounding; F => Feasibility pump; H => Heuristic;
     I => Shifting; J => Feasibility jump; L => Sub-MIP; P => Empty MIP; R => Randomized rounding;
     S => Solve LP; T => Evaluate node; U => Unbounded; X => User solution; Y => HiGHS solution;
     Z => ZI Round; l => Trivial lower; p => Trivial point; u => Trivial upper; z => Trivial zero

        Nodes      |    B&B Tree     |            Objective Bounds              |  Dynamic Constraints |       Work      
Src  Proc. InQueue |  Leaves   Expl. | BestBound       BestSol              Gap |   Cuts   InLp Confl. | LpIters     Time

         0       0         0   0.00%   0               inf                  inf        0      0      0         0     0.0s
         0       0         0   0.00%   0               inf                  inf        0      0      3       234     0.0s

Symmetry detection completed in 0.0s
Found 18 generator(s)

        45       0        23 100.00%   inf             inf                  inf       61      7    178     22992     2.2s

Solving report
  Status            Infeasible
  Primal bound      inf
  Dual bound        inf
  Gap               inf
  P-D integral      0
  Solution status   -
  Timing            2.19
                    0.11 (Presolve)
                        MIP    time [calls] = 0.02 [1]
                        subMIP time [calls] = 0.10 [12]
                    2.08 (Solve)
                        MIP    time [calls] = 1.09 [1]
                        subMIP time [calls] = 0.99 [8]
                    0.00 (Postsolve)
                        MIP    time [calls] = 0.00 [1]
                        subMIP time [calls] = 0.00 [12]
  Max sub-MIP depth 4
  Nodes             45
  Repair LPs        0
  LP iterations     22992
                    0 (strong br.)
                    314 (separation)
                    8790 (heuristics)
N=240 T=5: 16 values, 734 columns
status: Infeasible
UNSAT: no covering of Z_N with distinct divisor moduli >= 5 for this N
